
  32    4
  10   10   10   10

   0   0   0   0   0   2 2 6 
   1   1   0   1   1   1 3 
   3   6   0   6   4   1 4 
  10   4   1   0   2   1 5 
   9   5   4   2   0   2 12 7 
   3   4   4   2   0   2 12 7 
   4   0   5   2   4   2 11 8 
   3   0   7   4   5   1 9 
   5   5   9   2   0   1 10 
   9   4   5   0   3   2 17 13 
   5   0   5   2   7   2 17 13 
   8   0   5   4   5   2 17 14 
   1   4   5   3   0   1 14 
   9   3   0   5   3   1 15 
   4   0   2   5   2   1 16 
   7   5   2   8   0   2 19 18 
   4   2   0   5   5   1 18 
   8   5   6   0   3   1 20 
   9   6   3   2   0   1 20 
   8   4   2   3   0   1 21 
   6   0   1   7   3   1 22 
   8   0   2   5   6   1 23 
   2   3   3   0   4   1 24 
   5   3   4   4   0   1 25 
  10   3   5   0   4   2 28 26 
   6   4   4   0   5   1 27 
   3   2   4   0   2   1 29 
   9   3   0   6   5   1 29 
   3   6   0   4   7   1 30 
   4   7   3   5   0   1 31 
   9   3   5   5   0   1 32
   0   0   0   0   0   0 
